# Solution for model GasLib-40
# Objective value = 5.6911461366013675e+01
loadshed[innode_1] 0
loadshed[innode_2] 0
loadshed[innode_3] 0
loadshed[innode_4] 0
loadshed[innode_5] 0
loadshed[innode_6] 0
loadshed[innode_7] 0
loadshed[innode_8] 0
loadshed[source_1] -0.0677712371057968
loadshed[source_2] 8.9293822519029731e-02
loadshed[source_3] 3.3847084470779210e-01
loadshed[sink_1] 4.8155157221282430e-01
loadshed[sink_2] 0
loadshed[sink_3] 0
loadshed[sink_4] 0
loadshed[sink_5] 0
loadshed[sink_6] 0
loadshed[sink_7] 0
loadshed[sink_8] 0
loadshed[sink_9] 1.2260542370471517e-01
loadshed[sink_10] 0
loadshed[sink_11] 0
loadshed[sink_12] 1
loadshed[sink_13] 0
loadshed[sink_14] 0
loadshed[sink_15] 0
loadshed[sink_16] 0
loadshed[sink_17] 0
loadshed[sink_18] 0
loadshed[sink_19] 0
loadshed[sink_20] 0
loadshed[sink_21] 1
loadshed[sink_22] 0
loadshed[sink_23] 0
loadshed[sink_24] 8.7577949525272325e-01
loadshed[sink_25] 0
loadshed[sink_26] 0
loadshed[sink_27] 0
loadshed[sink_28] 0
loadshed[sink_29] 0
flow[source_1,sink_3] 1.6880425147717682e+02
flow[innode_1,sink_16] 1.6354166666666970e+01
flow[innode_6,sink_13] 9.8978387484232258e+00
flow[sink_13,sink_14] -6.4563279182434421e+00
flow[sink_14,sink_10] -2.2810494584910145e+01
flow[sink_25,sink_26] 1.1704647396262976e+02
flow[sink_26,sink_9] 0
flow[sink_9,sink_18] -1.4349057133162471e+01
flow[sink_26,sink_4] 1.0069230729596302e+02
flow[sink_4,sink_20] -5.5000398004691306e+01
flow[sink_18,sink_6] -3.0703223799829139e+01
flow[sink_25,innode_8] -1.3609591814384044e+02
flow[sink_6,sink_7] -7.1890349129265189e+01
flow[sink_6,sink_22] 2.4832958662769439e+01
flow[sink_7,sink_24] 2.0315228380544217e+00
flow[sink_22,sink_1] 8.4787919961027711e+00
flow[sink_24,sink_21] 0
flow[sink_21,sink_12] 0
flow[sink_7,sink_5] -9.0276038633986275e+01
flow[sink_5,sink_17] -1.0663020530065295e+02
flow[sink_17,sink_4] -1.3933853863398795e+02
flow[sink_17,sink_8] 1.6354166666668334e+01
flow[sink_3,sink_23] 16.3541666666697
flow[sink_8,sink_20] 0
flow[sink_25,sink_20] 71.3545646713581
flow[sink_25,sink_15] -7.8557125905236887e+01
flow[sink_15,sink_29] -5.4036837854586963e+01
flow[sink_29,sink_28] 1.6354166666667879e+01
flow[sink_29,sink_2] 5.7228621383983295e+01
flow[sink_2,sink_15] 4.0874454717316667e+01
flow[sink_29,innode_7] -1.4397379257190477e+02
flow[innode_4,sink_19] 0
flow[sink_19,innode_3] 3.5073717981691232e+01
flow[innode_4,innode_5] 1.0458132791824383e+02
flow[sink_27,innode_5] -1.0458132791824383e+02
flow[sink_27,sink_19] 8.8227161251577158e+01
flow[sink_10,sink_11] 3.2708333333333641e+01
flow[sink_10,innode_2] -36.7992766032192
flow[sink_10,innode_3] -3.5073717981691232e+01
flow[innode_6,sink_25] -9.8978387484232258e+00
flow[sink_11,innode_1] 1.6354166666666970e+01
flow[sink_19,innode_2] 36.7992766032192
flow[source_3,innode_4] 1.0458132791824383e+02
flow[source_2,innode_7] 1.4397379257190477e+02
flow[sink_3,innode_8] 1.3609591814384044e+02
pressure[innode_1] 76.0825168796543
pressure[innode_2] 78.1792119417281
pressure[innode_3] 7.8101545164925355e+01
pressure[innode_4] 81.01325
pressure[innode_5] 8.0941313448067319e+01
pressure[innode_6] 7.5198324804826626e+01
pressure[innode_7] 81.01325
pressure[innode_8] 8.0449001872873211e+01
pressure[source_1] 81.01325
pressure[source_2] 81.01325
pressure[source_3] 81.01325
pressure[sink_1] 1.0132500000000002e+00
pressure[sink_2] 75.7128494993131
pressure[sink_3] 8.0449001872873211e+01
pressure[sink_4] 5.4152529828287079e+01
pressure[sink_5] 4.0884290786687629e+01
pressure[sink_6] 2.3523091455894831e+00
pressure[sink_7] 3.33919227847763
pressure[sink_8] 4.8210385140911214e+01
pressure[sink_9] 1.01325
pressure[sink_10] 7.6234218187257852e+01
pressure[sink_11] 76.0825168796543
pressure[sink_12] 1.01325
pressure[sink_13] 7.5143759673889079e+01
pressure[sink_14] 7.5155313822656325e+01
pressure[sink_15] 7.5579403413245771e+01
pressure[sink_16] 7.5060867044836627e+01
pressure[sink_17] 4.8827470336324836e+01
pressure[sink_18] 1.5324416546232689e+00
pressure[sink_19] 78.1792119417281
pressure[sink_20] 5.8187614763804469e+01
pressure[sink_21] 1.01325
pressure[sink_22] 1.5647594393824573e+00
pressure[sink_23] 8.0284283861213424e+01
pressure[sink_24] 1.01325
pressure[sink_25] 7.5198324804826626e+01
pressure[sink_26] 6.6954810381220881e+01
pressure[sink_27] 8.0073481671861359e+01
pressure[sink_28] 7.6867232791768771e+01
pressure[sink_29] 7.7162515065385946e+01
interdiction[source_1,sink_3] 0
interdiction[innode_1,sink_16] 0
interdiction[innode_6,sink_13] 0
interdiction[sink_13,sink_14] 0
interdiction[sink_14,sink_10] 0
interdiction[sink_25,sink_26] 0
interdiction[sink_26,sink_9] 1
interdiction[sink_9,sink_18] 0
interdiction[sink_26,sink_4] 0
interdiction[sink_4,sink_20] 0
interdiction[sink_18,sink_6] 0
interdiction[sink_25,innode_8] 0
interdiction[sink_6,sink_7] 0
interdiction[sink_6,sink_22] 0
interdiction[sink_7,sink_24] 0
interdiction[sink_22,sink_1] 0
interdiction[sink_24,sink_21] 0
interdiction[sink_21,sink_12] 0
interdiction[sink_7,sink_5] 0
interdiction[sink_5,sink_17] 0
interdiction[sink_17,sink_4] 0
interdiction[sink_17,sink_8] 0
interdiction[sink_3,sink_23] 0
interdiction[sink_8,sink_20] 1
interdiction[sink_25,sink_20] 0
interdiction[sink_25,sink_15] 0
interdiction[sink_15,sink_29] 0
interdiction[sink_29,sink_28] 0
interdiction[sink_29,sink_2] 0
interdiction[sink_2,sink_15] 0
interdiction[sink_29,innode_7] 0
interdiction[innode_4,sink_19] 1
interdiction[sink_19,innode_3] 0
interdiction[innode_4,innode_5] 0
interdiction[sink_27,innode_5] 0
interdiction[sink_27,sink_19] 0
interdiction[sink_10,sink_11] 0
interdiction[sink_10,innode_2] 0
interdiction[sink_10,innode_3] 0
interdiction[innode_6,sink_25] 0
interdiction[sink_11,innode_1] 0
interdiction[sink_19,innode_2] 0
interdiction[source_3,innode_4] 0
interdiction[source_2,innode_7] 0
interdiction[sink_3,innode_8] 0
WCcheckFlow[source_1,sink_3] 39
WCcheckFlow[innode_1,sink_16] 1
WCcheckFlow[innode_6,sink_13] 13
WCcheckFlow[sink_13,sink_14] 12
WCcheckFlow[sink_14,sink_10] 11
WCcheckFlow[sink_25,sink_26] 15
WCcheckFlow[sink_26,sink_9] 0
WCcheckFlow[sink_9,sink_18] -1
WCcheckFlow[sink_26,sink_4] 14
WCcheckFlow[sink_4,sink_20] 1
WCcheckFlow[sink_18,sink_6] -2
WCcheckFlow[sink_25,innode_8] -36
WCcheckFlow[sink_6,sink_7] -5
WCcheckFlow[sink_6,sink_22] 2
WCcheckFlow[sink_7,sink_24] 3
WCcheckFlow[sink_22,sink_1] 1
WCcheckFlow[sink_24,sink_21] 2
WCcheckFlow[sink_21,sink_12] 1
WCcheckFlow[sink_7,sink_5] -9
WCcheckFlow[sink_5,sink_17] -10
WCcheckFlow[sink_17,sink_4] -12
WCcheckFlow[sink_17,sink_8] 1
WCcheckFlow[sink_3,sink_23] 1
WCcheckFlow[sink_8,sink_20] 0
WCcheckFlow[sink_25,sink_20] 0
WCcheckFlow[sink_25,sink_15] 6
WCcheckFlow[sink_15,sink_29] 5
WCcheckFlow[sink_29,sink_28] 1
WCcheckFlow[sink_29,sink_2] 1
WCcheckFlow[sink_2,sink_15] 0
WCcheckFlow[sink_29,innode_7] 2
WCcheckFlow[innode_4,sink_19] 0
WCcheckFlow[sink_19,innode_3] -5
WCcheckFlow[innode_4,innode_5] -2
WCcheckFlow[sink_27,innode_5] 3
WCcheckFlow[sink_27,sink_19] -4
WCcheckFlow[sink_10,sink_11] 3
WCcheckFlow[sink_10,innode_2] 1
WCcheckFlow[sink_10,innode_3] 6
WCcheckFlow[innode_6,sink_25] -14
WCcheckFlow[sink_11,innode_1] 2
WCcheckFlow[sink_19,innode_2] 0
WCcheckFlow[source_3,innode_4] -1
WCcheckFlow[source_2,innode_7] -1
WCcheckFlow[sink_3,innode_8] 37
